(declare-fun w0_ack!113 () (_ BitVec 64))
(declare-fun w1_ack!110 () (_ BitVec 64))
(declare-fun w2_ack!111 () (_ BitVec 64))
(declare-fun w3_ack!112 () (_ BitVec 64))
(assert (not (fp.gt ((_ to_fp 11 53) w0_ack!113) ((_ to_fp 11 53) #x0000000000000000))))
(assert (fp.gt ((_ to_fp 11 53) w1_ack!110) ((_ to_fp 11 53) #x0000000000000000)))
(assert (not (fp.gt ((_ to_fp 11 53) w2_ack!111) ((_ to_fp 11 53) #x0000000000000000))))
(assert (not (fp.gt ((_ to_fp 11 53) w3_ack!112) ((_ to_fp 11 53) #x0000000000000000))))
(assert (fp.gt ((_ to_fp 11 53) w0_ack!113) ((_ to_fp 11 53) #x0000000000000000)))

(check-sat)
(exit)
